#######################################
### Exact MIP solver for the HHCRSP ###
#######################################
-- Instance file: new-instances/HHCRSP_400_80_95_1.6_R_RC.txt
-- Max threads: 4
-- Time limit: 999999 seconds
-- Use initial solution: No
Trivial flow violations prevented generating 2745565 variables.
Version identifier: 20.1.0.0 | 2020-11-10 | 9bedb6d68
CPXPARAM_Threads                                 4
CPXPARAM_Emphasis_Memory                         1
CPXPARAM_TimeLimit                               999999
Tried aggregator 1 time.
Presolve has eliminated 85104 rows and 20025 columns...
LP Presolve eliminated 85104 rows and 20025 columns.
Reduced LP has 3164454 rows, 3002341 columns, and 90516874 nonzeros.
Presolve time = 89.40 sec. (19187.95 ticks)
Compression time = 20.65 sec. (5.98 ticks)
Compression reduced 1306.07 MB A matrix to 392.85 MB
Symmetry aggregator did 5426248 additional substitutions.
Elapsed time = 111.46 sec. (20008.78 ticks, 1 iterations)

Iteration log . . .
Iteration:     1   Dual objective     =             0.000000
Iteration:  1820   Dual objective     =           429.166667

Dual crossover.
  Dual:  Fixing 3096 variables.
     3095 DMoves:  Infeasibility  6.58251231e-12  Objective  4.31000000e+02
        0 DMoves:  Infeasibility  2.76444608e-12  Objective  4.31000000e+02
  Dual:  Pushed 44, exchanged 3052.
  Primal:  Fixing 2479 variables.
     2478 PMoves:  Infeasibility  6.93889390e-17  Objective  4.31000000e+02
        0 PMoves:  Infeasibility  1.04083409e-16  Objective  4.31000000e+02
  Primal:  Pushed 2287, exchanged 192.

Solution status from MIP model:
-- Processing time: 155.923 sec.
-- Memory used: 2027.23 MB
-- Best bound: inf
-- Obj value: 431
-- Gap: inf%
-- Total distance: 1293
-- Total tardiness: 0
-- Largest tardiness: 0
